benchmarks_vrp/CMT4/fixed_c_size/CMT4_9.vrp
NAME: CMT4_9
TYPE: CVRP
COMMENT: 1028.42 - Cluster Nr.9
DIMENSION: 15
CAPACITY: 200
EDGE_WEIGHT_TYPE: EUC_2D
NODE_COORD_TYPE: TWOD_COORDS
NODE_COORD_SECTION: 
6 25 55
1 37 69
11 31 62
14 30 60
5 24 58
13 31 67
8 35 35
7 40 60
10 37 56
15 35 69
12 27 68
2 43 67
9 42 57
3 27 69
4 45 65
DEPOT_SECTION: 
8
-1
DEMAND_SECTION: 
14 16
12 7
7 21
3 10
9 8
5 19
8 0
6 17
1 11
13 3
11 23
10 5
15 23
2 14
4 9
EOF
