benchmarks_vrp/CMT4/fixed_c_size/CMT4_9.tour
NAME: CMT4_9 solution
TYPE: TOUR
TOUR_SECTION:
8 6 5 14 11 12 3 13 15 1 2 4 7 9 10 -1
-1
EOF